solution status: optimal solution found
objective value:                          24.70000004
x6                                                  1 	(obj:0)
x25                                                 1 	(obj:0)
x46                                                 1 	(obj:0)
x60                                                 1 	(obj:0)
x80                                                 1 	(obj:0)
x83                                                 1 	(obj:0)
x85                                                 1 	(obj:0)
x145                                       1.10000002 	(obj:1)
x149                                                2 	(obj:1)
x150                                       1.29999996 	(obj:1)
x151                                0.199999939999999 	(obj:1)
x154                                       1.29999996 	(obj:1)
x155                                0.199999939999999 	(obj:1)
x158                                       1.29999996 	(obj:1)
x159                                0.199999939999998 	(obj:1)
x169                                       0.39999998 	(obj:3)
x117                                0.200000040000001 	(obj:3)
x120                                       1.10000002 	(obj:1)
x101                                0.200000040000001 	(obj:3)
x121                                                2 	(obj:1)
x113                                0.200000040000001 	(obj:3)
x124                                       1.10000002 	(obj:1)
x127                                       1.10000002 	(obj:1)
x128                                       1.10000002 	(obj:1)
x136                                       1.10000002 	(obj:1)
x137                                                2 	(obj:1)
x142                                       1.29999996 	(obj:1)
x132                                       1.10000002 	(obj:1)
x133                                                2 	(obj:1)
x143                                0.199999939999999 	(obj:1)
